(set-logic QF_BV)
(declare-fun _substvar_385_ () (_ BitVec 58))
(declare-fun _substvar_362_ () (_ BitVec 53))
(declare-fun _substvar_422_ () (_ BitVec 53))
(declare-fun _substvar_428_ () (_ BitVec 53))
(declare-fun _substvar_272_ () (_ BitVec 64))
(declare-fun _substvar_1547_ () Bool)
(define-fun def_176 () (_ BitVec 11) ((_ extract 62 52) _substvar_272_))
(define-fun def_180 () (_ BitVec 1) (bvcomp def_176 (_ bv2047 11)))
(define-fun def_177 () (_ BitVec 52) ((_ extract 51 0) _substvar_272_))
(define-fun def_324 () Bool (not _substvar_1547_))
(define-fun def_312 () (_ BitVec 1) (bvnot (_ bv0 1)))
(define-fun def_311 () (_ BitVec 1) (bvnot def_180))
(define-fun def_314 () (_ BitVec 1) (bvand def_311 def_312))
(define-fun def_315 () (_ BitVec 53) (concat def_314 def_177))
(define-fun def_347 () Bool (= (_ bv0 53) _substvar_362_))
(define-fun def_348 () Bool (or def_324 def_347))
(define-fun def_1705 () Bool def_348)
(define-fun def_1706 () Bool def_1705)
(define-fun def_353 () Bool (= def_315 _substvar_422_))
(define-fun def_354 () Bool (or def_324 def_353))
(define-fun def_1707 () Bool (and def_354 def_1706))
(define-fun def_363 () Bool (= (_ bv0 53) _substvar_428_))
(define-fun def_365 () Bool def_363)
(define-fun def_1708 () Bool (and def_365 def_1707))
(define-fun def_367 () Bool true)
(define-fun def_1709 () Bool (and def_367 def_1708))
(define-fun def_375 () (_ BitVec 55) ((_ zero_extend 2) _substvar_428_))
(define-fun def_357 () (_ BitVec 55) (concat _substvar_422_ (_ bv0 2)))
(define-fun def_376 () (_ BitVec 55) (bvlshr def_357 def_375))
(define-fun def_377 () (_ BitVec 56) (concat def_376 (_ bv0 1)))
(define-fun def_379 () (_ BitVec 58) ((_ zero_extend 2) def_377))
(define-fun def_356 () (_ BitVec 56) (concat _substvar_362_ (_ bv0 3)))
(define-fun def_378 () (_ BitVec 58) ((_ zero_extend 2) def_356))
(define-fun def_389 () Bool true)
(define-fun def_1710 () Bool (and def_389 def_1709))
(define-fun def_382 () (_ BitVec 58) (bvneg def_379))
(define-fun def_383 () (_ BitVec 58) (bvadd def_378 def_382))
(define-fun def_390 () Bool (= def_383 _substvar_385_))
(define-fun def_391 () Bool def_390)
(define-fun def_1711 () Bool (and def_391 def_1710))
(define-fun def_398 () Bool (= _substvar_385_ (_ bv0 58)))
(define-fun def_400 () Bool def_398)
(define-fun def_1712 () Bool (and def_400 def_1711))
(define-fun def_402 () Bool true)
(define-fun def_1713 () Bool (and def_402 def_1712))
(define-fun def_1714 () Bool def_1713)
(define-fun def_1715 () Bool def_1714)
(define-fun def_543 () Bool true)
(define-fun def_1716 () Bool (and def_543 def_1715))
(define-fun def_545 () Bool true)
(define-fun def_1717 () Bool (and def_545 def_1716))
(define-fun def_553 () Bool true)
(define-fun def_1718 () Bool (and def_553 def_1717))
(define-fun def_555 () Bool true)
(define-fun def_1719 () Bool (and def_555 def_1718))
(define-fun def_560 () Bool true)
(define-fun def_1720 () Bool (and def_560 def_1719))
(define-fun def_562 () Bool true)
(define-fun def_1721 () Bool (and def_562 def_1720))
(define-fun def_596 () Bool true)
(define-fun def_1722 () Bool (and def_596 def_1721))
(define-fun def_598 () Bool true)
(define-fun def_1723 () Bool (and def_598 def_1722))
(define-fun def_653 () Bool true)
(define-fun def_1724 () Bool (and def_653 def_1723))
(define-fun def_657 () Bool true)
(define-fun def_1725 () Bool (and def_657 def_1724))
(define-fun def_1726 () Bool def_1725)
(define-fun def_833 () Bool true)
(define-fun def_1727 () Bool (and def_833 def_1726))
(define-fun def_835 () Bool true)
(define-fun def_1728 () Bool (and def_835 def_1727))
(define-fun def_843 () Bool true)
(define-fun def_1729 () Bool (and def_843 def_1728))
(define-fun def_845 () Bool true)
(define-fun def_1730 () Bool (and def_845 def_1729))
(define-fun def_850 () Bool true)
(define-fun def_1731 () Bool (and def_850 def_1730))
(define-fun def_852 () Bool true)
(define-fun def_1732 () Bool (and def_852 def_1731))
(define-fun def_886 () Bool true)
(define-fun def_1733 () Bool (and def_886 def_1732))
(define-fun def_888 () Bool true)
(define-fun def_1734 () Bool (and def_888 def_1733))
(define-fun def_985 () Bool true)
(define-fun def_1735 () Bool (and def_985 def_1734))
(define-fun def_987 () Bool true)
(define-fun def_1736 () Bool (and def_987 def_1735))
(define-fun def_997 () Bool true)
(define-fun def_1737 () Bool (and def_997 def_1736))
(define-fun def_999 () Bool true)
(define-fun def_1738 () Bool (and def_999 def_1737))
(define-fun def_1003 () Bool true)
(define-fun def_1739 () Bool (and def_1003 def_1738))
(define-fun def_1005 () Bool true)
(define-fun def_1740 () Bool (and def_1005 def_1739))
(define-fun def_1009 () Bool true)
(define-fun def_1741 () Bool (and def_1009 def_1740))
(define-fun def_1011 () Bool true)
(define-fun def_1742 () Bool (and def_1011 def_1741))
(define-fun def_1020 () Bool true)
(define-fun def_1743 () Bool (and def_1020 def_1742))
(define-fun def_1022 () Bool true)
(define-fun def_1744 () Bool (and def_1022 def_1743))
(define-fun def_1043 () Bool true)
(define-fun def_1745 () Bool (and def_1043 def_1744))
(define-fun def_1045 () Bool true)
(define-fun def_1746 () Bool (and def_1045 def_1745))
(define-fun def_1053 () Bool true)
(define-fun def_1747 () Bool (and def_1053 def_1746))
(define-fun def_1055 () Bool true)
(define-fun def_1748 () Bool (and def_1055 def_1747))
(define-fun def_1077 () Bool true)
(define-fun def_1749 () Bool (and def_1077 def_1748))
(define-fun def_1079 () Bool true)
(define-fun def_1750 () Bool (and def_1079 def_1749))
(define-fun def_1163 () Bool true)
(define-fun def_1751 () Bool (and def_1163 def_1750))
(define-fun def_1165 () Bool true)
(define-fun def_1752 () Bool (and def_1165 def_1751))
(define-fun def_1172 () Bool true)
(define-fun def_1753 () Bool (and def_1172 def_1752))
(define-fun def_1174 () Bool true)
(define-fun def_1754 () Bool (and def_1174 def_1753))
(define-fun def_1179 () Bool true)
(define-fun def_1755 () Bool (and def_1179 def_1754))
(define-fun def_1181 () Bool true)
(define-fun def_1756 () Bool (and def_1181 def_1755))
(define-fun def_1214 () Bool true)
(define-fun def_1757 () Bool (and def_1214 def_1756))
(define-fun def_1216 () Bool true)
(define-fun def_1758 () Bool (and def_1216 def_1757))
(define-fun def_1270 () Bool true)
(define-fun def_1759 () Bool (and def_1270 def_1758))
(define-fun def_1274 () Bool true)
(define-fun def_1760 () Bool (and def_1274 def_1759))
(define-fun def_1761 () Bool def_1760)
(define-fun def_1762 () Bool def_1761)
(define-fun def_1763 () Bool def_1762)
(define-fun def_1764 () Bool def_1763)
(define-fun def_1765 () Bool def_1764)
(define-fun def_1393 () Bool (= def_315 (_ bv0 53)))
(define-fun def_1394 () Bool (or _substvar_1547_ def_1393))
(define-fun def_1766 () Bool (and def_1394 def_1765))
(define-fun def_1767 () Bool def_1766)
(define-fun def_1768 () Bool def_1767)
(define-fun def_1769 () Bool def_1768)
(define-fun def_1410 () Bool true)
(define-fun def_1770 () Bool (and def_1410 def_1769))
(define-fun def_1412 () Bool true)
(define-fun def_1771 () Bool (and def_1412 def_1770))
(define-fun def_1433 () Bool true)
(define-fun def_1772 () Bool (and def_1433 def_1771))
(define-fun def_1435 () Bool true)
(define-fun def_1773 () Bool (and def_1435 def_1772))
(define-fun def_1443 () Bool true)
(define-fun def_1774 () Bool (and def_1443 def_1773))
(define-fun def_1445 () Bool true)
(define-fun def_1775 () Bool (and def_1445 def_1774))
(define-fun def_1776 () Bool def_1775)
(define-fun def_1777 () Bool def_1776)
(define-fun def_1541 () Bool true)
(define-fun def_1778 () Bool (and def_1541 def_1777))
(define-fun def_1543 () Bool true)
(define-fun def_1779 () Bool (and def_1543 def_1778))
(define-fun def_1550 () Bool true)
(define-fun def_1780 () Bool (and def_1550 def_1779))
(define-fun def_1552 () Bool true)
(define-fun def_1781 () Bool (and def_1552 def_1780))
(define-fun def_1557 () Bool true)
(define-fun def_1782 () Bool (and def_1557 def_1781))
(define-fun def_1559 () Bool true)
(define-fun def_1783 () Bool (and def_1559 def_1782))
(define-fun def_1592 () Bool true)
(define-fun def_1784 () Bool (and def_1592 def_1783))
(define-fun def_1594 () Bool true)
(define-fun def_1785 () Bool (and def_1594 def_1784))
(define-fun def_1648 () Bool true)
(define-fun def_1786 () Bool (and def_1648 def_1785))
(define-fun def_1652 () Bool true)
(define-fun def_1787 () Bool (and def_1652 def_1786))
(define-fun def_1788 () Bool def_1787)
(assert def_1788)
(check-sat)
(exit)
